objective value:                  0.00103928803700001
x_1_1                                               1 	(obj:0)
x_2_2                                               1 	(obj:0)
x_3_4                                               1 	(obj:0)
x_4_1                                               1 	(obj:0)
x_5_2                                               1 	(obj:0)
x_6_4                                               1 	(obj:0)
x_7_1                                               1 	(obj:0)
x_8_1                                               1 	(obj:0)
x_9_4                                               1 	(obj:0)
x_10_4                                              1 	(obj:0)
x_11_2                                              1 	(obj:0)
x_12_2                                              1 	(obj:0)
x_13_4                                              1 	(obj:0)
x_14_1                                              1 	(obj:0)
x_15_1                                              1 	(obj:0)
x_16_4                                              1 	(obj:0)
x_17_2                                              1 	(obj:0)
x_18_1                                              1 	(obj:0)
x_19_2                                              1 	(obj:0)
x_20_4                                              1 	(obj:0)
x_21_2                                              1 	(obj:0)
x_22_4                                              1 	(obj:0)
x_23_1                                              1 	(obj:0)
x_24_2                                              1 	(obj:0)
x_25_4                                              1 	(obj:0)
x_26_4                                              1 	(obj:0)
x_27_2                                              1 	(obj:0)
x_28_2                                              1 	(obj:0)
x_29_2                                              1 	(obj:0)
x_30_1                                              1 	(obj:0)
x_31_4                                              1 	(obj:0)
x_32_1                                              1 	(obj:0)
x_33_1                                              1 	(obj:0)
x_34_2                                              1 	(obj:0)
x_35_1                                              1 	(obj:0)
x_36_4                                              1 	(obj:0)
x_37_1                                              1 	(obj:0)
x_38_4                                              1 	(obj:0)
x_39_4                                              1 	(obj:0)
x_40_2                                              1 	(obj:0)
ind_1                                               1 	(obj:0)
abs_1_4                                             1 	(obj:0)
ind_2                                               1 	(obj:0)
abs_2_1                                             1 	(obj:0)
ind_4                                               1 	(obj:0)
abs_4_2                                             1 	(obj:0)
epsI                              0.00103928803700001 	(obj:1)
SCIP Status        : solving was interrupted [time limit reached]
Total Time         :    3600.00
  solving          :    3600.00
  presolving       :       0.14 (included in solving)
  reading          :       0.00
  copying          :       0.00 (0 times copied the problem)
Original Problem   :
  Problem name     : ../instances/Pot6Cycle/Pot6Cycle_T_40B_1t.txt.spa
  Variables        : 181 (180 binary, 0 integer, 0 implicit integer, 1 continuous)
  Constraints      : 333 initial, 333 maximal
  Objective sense  : maximize
Presolved Problem  :
  Problem name     : t_../instances/Pot6Cycle/Pot6Cycle_T_40B_1t.txt.spa
  Variables        : 1230 (172 binary, 0 integer, 16 implicit integer, 1042 continuous)
  Constraints      : 4315 initial, 4493 maximal
Presolvers         :   ExecTime  SetupTime  Calls  FixedVars   AggrVars   ChgTypes  ChgBounds   AddHoles    DelCons    AddCons   ChgSides   ChgCoefs
  boundshift       :       0.00       0.00      0          0          0          0          0          0          0          0          0          0
  components       :       0.00       0.00      1          0          0          0          0          0          0          0          0          0
  convertinttobin  :       0.00       0.00      0          0          0          0          0          0          0          0          0          0
  domcol           :       0.01       0.00      1          0          0          0          0          0          0          0          0          0
  dualagg          :       0.00       0.00      0          0          0          0          0          0          0          0          0          0
  dualinfer        :       0.00       0.00      0          0          0          0          0          0          0          0          0          0
  gateextraction   :       0.00       0.00      3          0          0          0          0          0        108         34          0          0
  implfree         :       0.00       0.00      0          0          0          0          0          0          0          0          0          0
  implics          :       0.00       0.00      4          0          0          0          0          0          0          0          0          0
  inttobinary      :       0.00       0.00      0          0          0          0          0          0          0          0          0          0
  redvub           :       0.00       0.00      0          0          0          0          0          0          0          0          0          0
  stuffing         :       0.00       0.00      1          0          0          0          0          0          0          0          0          0
  trivial          :       0.00       0.00      7          0          0          0          0          0          0          0          0          0
  tworowbnd        :       0.00       0.00      0          0          0          0          0          0          0          0          0          0
  dualfix          :       0.00       0.00      7          4          0          0          0          0          0          0          0          0
  genvbounds       :       0.00       0.00      0          0          0          0          0          0          0          0          0          0
  probing          :       0.08       0.00      1          0          0          0          0          0          0          0          0          0
  pseudoobj        :       0.00       0.00      0          0          0          0          0          0          0          0          0          0
  varbound         :       0.00       0.00      9          0          0          0          0          0         28         28          0          0
  setppc           :       0.00       0.00     12          0          0          0          0          0          0          0          0          0
  and              :       0.00       0.00      4          0         12          0          0          0         12          0          0          0
  linear           :       0.02       0.00      9          3          1          0          4          0          7          0         12         12
  logicor          :       0.00       0.00      7          0          0          0          0          0          0          0          0          0
  bounddisjunction :       0.00       0.00      0          0          0          0          0          0          0          0          0          0
  quadratic        :       0.03       0.00      2          0          0          0          0          0          0       4075          0          0
  root node        :          -          -      -          1          -          -         63          -          -          -          -          -
Constraints        :     Number  MaxNumber  #Separate #Propagate    #EnfoLP    #EnfoPS     #Check   #ResProp    Cutoffs    DomReds       Cuts    Applied      Conss   Children
  integral         :          0          0          0          0    1184812          0     162799          0          0      27907          0          0          3    1787894
  varbound         :       1909       1909         89    6085978     289133          0      57649     687859      10739   21318358          0          0          0          0
  setppc           :        210+       284         89    6074590     289133          0      18672    1058991       7669    1645821         10          0          0          0
  and              :         22         22       1186      14528          0          0      16777      22259          1       1123         37         21          0          0
  linear           :       2099       2099         89    6067569     289133          0      16741     680724      24080   57999411   27114770   27114318          0          0
  logicor          :         75+       175         78     659358          0          0          0      17006        220       7421          1          1          0          0
  bounddisjunction :          0+       104          0    1537636          0          0          0      20952        575     423374          0          0          0          0
  countsols        :          0          0          0          0          0          0     105149          0          0          0          0          0          0          0
Constraint Timings :  TotalTime  SetupTime   Separate  Propagate     EnfoLP     EnfoPS      Check    ResProp    SB-Prop
  integral         :      16.99       0.00       0.00       0.00      16.96       0.00       0.03       0.00       0.00
  varbound         :      24.58       0.00       0.03      19.11       3.45       0.00       1.82       0.09       0.08
  setppc           :      35.50       0.00       0.00      34.86       0.10       0.00       0.03       0.31       0.20
  and              :       0.05       0.00       0.00       0.00       0.00       0.00       0.04       0.01       0.00
  linear           :     157.06       0.00       0.04     126.25      29.50       0.00       0.31       0.62       0.34
  logicor          :       0.55       0.00       0.00       0.52       0.00       0.00       0.00       0.03       0.00
  bounddisjunction :       1.61       0.00       0.00       1.60       0.00       0.00       0.00       0.00       0.01
  countsols        :       0.00       0.00       0.00       0.00       0.00       0.00       0.00       0.00       0.00
Propagators        : #Propagate   #ResProp    Cutoffs    DomReds
  dualfix          :          2          0          0          0
  genvbounds       :          0          0          0          0
  obbt             :          0          0          0          0
  probing          :          0          0          0          0
  pseudoobj        :    5735894          0          0         62
  redcost          :    2467490          0          0     161896
  rootredcost      :          1          0          0          0
  vbounds          :    7255403        196          0        128
Propagator Timings :  TotalTime  SetupTime   Presolve  Propagate    ResProp    SB-Prop
  dualfix          :       0.00       0.00       0.00       0.00       0.00       0.00
  genvbounds       :       0.57       0.00       0.00       0.57       0.00       0.00
  obbt             :       0.00       0.00       0.00       0.00       0.00       0.00
  probing          :       0.08       0.00       0.08       0.00       0.00       0.00
  pseudoobj        :       1.19       0.00       0.00       1.19       0.00       0.00
  redcost          :      11.66       0.00       0.00      11.66       0.00       0.00
  rootredcost      :       0.69       0.00       0.00       0.69       0.00       0.00
  vbounds          :       1.71       0.00       0.00       1.71       0.00       0.00
Conflict Analysis  :       Time      Calls    Success    DomReds  Conflicts   Literals    Reconvs ReconvLits   LP Iters
  propagation      :       4.24      19207      19135          -     557025       85.1       1421       94.1          -
  infeasible LP    :      10.75      67649          0          -          0        0.0          0        0.0          0
  bound exceed. LP :       0.00          0          0          -          0        0.0          0        0.0          0
  strong branching :       0.00          0          0          -          0        0.0          0        0.0          0
  pseudo solution  :       0.00          0          0          -          0        0.0          0        0.0          -
  applied globally :       0.07          -          -          0       3163       19.8          -          -          -
  applied locally  :          -          -          -          0      16453       39.0          -          -          -
Separators         :   ExecTime  SetupTime      Calls    Cutoffs    DomReds       Cuts    Applied      Conss
  cut pool         :       0.00                    87          -          -       1529          -          -    (maximal pool size: 838)
  cgmip            :       0.00       0.00          0          0          0          0          0          0
  clique           :       0.03       0.00         88          0          0         76         56          0
  closecuts        :       0.00       0.00          0          0          0          0          0          0
  cmir             :       0.02       0.00         10          0          0         71         18          0
  disjunctive      :       0.00       0.00          0          0          0          0          0          0
  eccuts           :       0.00       0.00          0          0          0          0          0          0
  flowcover        :       0.54       0.00         15          0          0        249         62          0
  gomory           :       0.11       0.00         10          0          0         12         12          0
  impliedbounds    :       0.02       0.00         88          0          0        950        145          0
  intobj           :       0.00       0.00          0          0          0          0          0          0
  mcf              :       0.00       0.00          1          0          0          0          0          0
  oddcycle         :       0.00       0.00          0          0          0          0          0          0
  rapidlearning    :       0.00       0.00          0          0          0          0          0          0
  strongcg         :       0.24       0.00         20          0          0          3          2          0
  zerohalf         :       0.00       0.00          0          0          0          0          0          0
Pricers            :   ExecTime  SetupTime      Calls       Vars
  problem variables:       0.00          -          0          0
Branching Rules    :   ExecTime  SetupTime   BranchLP  BranchExt   BranchPS    Cutoffs    DomReds       Cuts      Conss   Children
  allfullstrong    :       0.00       0.00          0          0          0          0          0          0          0          0
  cloud            :       0.00       0.00          0          0          0          0          0          0          0          0
  distribution     :       0.00       0.00          0          0          0          0          0          0          0          0
  fullstrong       :       0.00       0.00          0          0          0          0          0          0          0          0
  inference        :       0.00       0.00          0          0          0          0          0          0          0          0
  leastinf         :       0.00       0.00          0          0          0          0          0          0          0          0
  mostinf          :       0.00       0.00          0          0          0          0          0          0          0          0
  multaggr         :       0.00       0.00          0          0          0          0          0          0          0          0
  nodereopt        :       0.00       0.00          0          0          0          0          0          0          0          0
  pscost           :       0.00       0.00          0          0          0          0          0          0          0          0
  random           :       0.00       0.00          0          0          0          0          0          0          0          0
  relpscost        :      16.47       0.00     895679          0          0          0      27907          0         -1    1787894
Primal Heuristics  :   ExecTime  SetupTime      Calls      Found       Best
  LP solutions     :       0.00          -          -          0          -
  pseudo solutions :       0.00          -          -          0          -
  strong branching :       0.00          -          -          0          -
  SpaGreedy        :     989.48       0.00     105148          2          1
  actconsdiving    :       0.00       0.00          0          0          0
  bound            :       0.00       0.00          0          0          0
  clique           :       0.00       0.00          0          0          0
  coefdiving       :      52.83       0.00       5568          0          0
  crossover        :       0.27       0.00          0          0          0
  dins             :       0.00       0.00          0          0          0
  distributiondivin:      85.23       0.00       5568          0          0
  dualval          :       0.00       0.00          0          0          0
  feaspump         :       9.09       0.00       2784          0          0
  fixandinfer      :       0.00       0.00          0          0          0
  fracdiving       :      55.49       0.00       5568          0          0
  guideddiving     :       0.03       0.00          0          0          0
  indicator        :       0.07       0.00          0          0          0
  intdiving        :       0.00       0.00          0          0          0
  intshifting      :       0.36       0.00         85          0          0
  linesearchdiving :      52.98       0.00       5568          0          0
  localbranching   :       0.00       0.00          0          0          0
  mutation         :       0.00       0.00          0          0          0
  nlpdiving        :       0.02       0.00          0          0          0
  objpscostdiving  :      25.68       0.00       2703          0          0
  octane           :       0.00       0.00          0          0          0
  ofins            :       0.00       0.00          0          0          0
  oneopt           :       0.34       0.00          0          0          0
  proximity        :       0.00       0.00          0          0          0
  pscostdiving     :      56.61       0.00       5568          0          0
  randrounding     :       1.66       0.00      40724          0          0
  rens             :       0.00       0.00          0          0          0
  reoptsols        :       0.00       0.00          0          0          0
  rins             :       0.38       0.00          0          0          0
  rootsoldiving    :      19.97       0.00       2784          0          0
  rounding         :       0.54       0.00      13235          0          0
  shiftandpropagate:       0.00       0.00          0          0          0
  shifting         :       1.18       0.00       3048          0          0
  simplerounding   :       0.15       0.00          0          0          0
  subnlp           :       0.11       0.00          0          0          0
  trivial          :       0.00       0.00          2          0          0
  trivialnegation  :       0.00       0.00          0          0          0
  trysol           :       0.29       0.00          0          0          0
  twoopt           :       0.00       0.00          0          0          0
  undercover       :       0.00       0.00          1          0          0
  vbounds          :       0.00       0.00          0          0          0
  veclendiving     :      53.77       0.00       5568          0          0
  zeroobj          :       0.00       0.00          0          0          0
  zirounding       :       0.33       0.00       1000          0          0
  other solutions  :          -          -          -          0          -
Diving Statistics  :      Calls      Nodes   LP Iters Backtracks   MinDepth   MaxDepth   AvgDepth  NLeafSols  MinSolDpt  MaxSolDpt  AvgSolDpt
  actconsdiving    :          0          -          -          -          -          -          -          -          -          -          -
  coefdiving       :       5568      92012    1479915       5881         24         75       40.6          -          -          -          -
  distributiondivin:       5568      80870    1488280       4380         26         69       39.1          -          -          -          -
  fracdiving       :       5568      88303    1630365       4164         25         94       40.3          -          -          -          -
  guideddiving     :          0          -          -          -          -          -          -          -          -          -          -
  linesearchdiving :       5568      87283    1504684       4052         20         63       40.1          -          -          -          -
  pscostdiving     :       5568      87701    1525088       4827         23         95       40.1          -          -          -          -
  veclendiving     :       5568      91289    1553600       6168         33         54       40.5          -          -          -          -
LP                 :       Time      Calls Iterations  Iter/call   Iter/sec  Time-0-It Calls-0-It
  primal LP        :       0.00         13          0       0.00          -       0.00         13
  dual LP          :    1287.57    2003817   44686082      24.99   34705.75      33.60     215374
  lex dual LP      :       0.00          0          0       0.00          -
  barrier LP       :       0.00          0          0       0.00          -       0.00          0
  diving/probing LP:     258.41     221074   10184296      46.07   39411.39
  strong branching :       9.63       2426     164248      67.70   17055.87
    (at root node) :          -         20       2912     145.60          -
  conflict analysis:       0.00          0          0       0.00          -
B&B Tree           :
  number of runs   :          1
  nodes            :    1567906 (893947 internal, 673959 leaves)
  nodes (total)    :    1567906 (893947 internal, 673959 leaves)
  nodes left       :     218068
  max depth        :         48
  max depth (total):         48
  backtracks       :     384874 (24.5%)
  delayed cutoffs  :       1921
  repropagations   :      11609 (811216 domain reductions, 1880 cutoffs)
  avg switch length:       5.12
  switching time   :     339.73
Root Node          :
  First LP value   : +3.00000000000000e+00
  First LP Iters   :        847
  First LP Time    :       0.00
  Final Dual Bound : +1.10090181889500e-02
  Final Root Iters :       5798
Solution           :
  Solutions found  :          2 (1 improvements)
  First Solution   : +1.03928803700001e-03   (in run 1, after 1 nodes, 0.15 seconds, depth 0, found by <SpaGreedy>)
  Gap First Sol.   :   infinite
  Gap Last Sol.    :   infinite
  Primal Bound     : +1.03928803700001e-03   (in run 1, after 1 nodes, 0.15 seconds, depth 0, found by <SpaGreedy>)
  Dual Bound       : +3.38935442650816e-03
  Gap              :     226.12 %
  Avg. Gap         :      90.57 % (326035.17 primal-dual integral)
